; Property from "Case-Analysis for Rippling and Inductive Proof",
; Moa Johansson, Lucas Dixon and Alan Bundy, ITP 2010
(declare-datatypes (a)
  ((list (nil) (cons (head a) (tail (list a))))))
(declare-datatypes () ((Nat (Z) (S (p Nat)))))
(define-fun-rec
  (par (a)
    (drop
       ((x Nat) (y (list a))) (list a)
       (match x
         (case Z y)
         (case (S z)
           (match y
             (case nil (as nil (list a)))
             (case (cons x2 x3) (drop z x3))))))))
(assert-not (par (a) (forall ((xs (list a))) (= (drop Z xs) xs))))
(check-sat)
